<?xml version = "1.0" encoding="UTF-8" standalone="yes"?>
<CPLEXSolution version="1.2">
 <header
   problemName="ilog.cplex"
   solutionName="incumbent"
   solutionIndex="-1"
   objectiveValue="260"
   solutionTypeValue="3"
   solutionTypeString="primal"
   solutionStatusValue="107"
   solutionStatusString="time limit exceeded"
   solutionMethodString="mip"
   primalFeasible="1"
   dualFeasible="0"
   MIPNodes="2486"
   MIPIterations="46042"
   writeLevel="3"/>
 <quality
   epInt="1.0000000000000001e-05"
   epRHS="9.9999999999999995e-07"
   maxIntInfeas="0"
   maxPrimalInfeas="0"
   maxX="19"
   maxSlack="100"/>
 <variables>
  <variable name="x_0_18_0" index="137" value="1"/>
  <variable name="x_10_0_0" index="148" value="1"/>
  <variable name="x_0_13_1" index="170" value="1"/>
  <variable name="x_10_0_1" index="186" value="1"/>
  <variable name="x_0_18_2" index="213" value="1"/>
  <variable name="x_15_0_2" index="229" value="1"/>
  <variable name="x_0_13_5" index="322" value="1"/>
  <variable name="x_10_0_5" index="338" value="1"/>
  <variable name="x_1_16_2" index="434" value="1"/>
  <variable name="x_14_1_2" index="450" value="1"/>
  <variable name="x_2_7_5" index="738" value="1"/>
  <variable name="x_17_2_5" index="765" value="1"/>
  <variable name="x_3_10_0" index="774" value="1"/>
  <variable name="x_18_3_0" index="798" value="1"/>
  <variable name="x_3_10_1" index="806" value="1"/>
  <variable name="x_16_3_1" index="828" value="1"/>
  <variable name="x_3_10_5" index="934" value="1"/>
  <variable name="x_16_3_5" index="956" value="1"/>
  <variable name="x_4_16_1" index="1001" value="1"/>
  <variable name="x_8_4_1" index="1008" value="1"/>
  <variable name="x_5_11_1" index="1173" value="1"/>
  <variable name="x_13_5_1" index="1189" value="1"/>
  <variable name="x_7_19_1" index="1499" value="1"/>
  <variable name="x_11_7_1" index="1503" value="1"/>
  <variable name="x_7_16_5" index="1592" value="1"/>
  <variable name="x_19_8_1" index="1651" value="1"/>
  <variable name="x_13_17_5" index="2211" value="1"/>
  <variable name="x_18_14_2" index="2248" value="1"/>
  <variable name="x_16_15_2" index="2300" value="1"/>
  <variable name="y_0_2" index="2403" value="1"/>
  <variable name="y_1_5" index="2406" value="1"/>
  <variable name="y_2_0" index="2417" value="1"/>
  <variable name="y_3_2" index="2421" value="1"/>
  <variable name="y_4_1" index="2428" value="1"/>
  <variable name="y_5_5" index="2430" value="1"/>
  <variable name="y_6_5" index="2436" value="1"/>
  <variable name="y_7_1" index="2446" value="1"/>
  <variable name="y_8_1" index="2452" value="1"/>
  <variable name="y_9_0" index="2459" value="1"/>
  <variable name="y_10_5" index="2460" value="1"/>
  <variable name="y_11_2" index="2469" value="1"/>
  <variable name="y_12_1" index="2476" value="1"/>
  <variable name="y_13_0" index="2483" value="1"/>
  <variable name="y_14_2" index="2487" value="1"/>
  <variable name="y_15_0" index="2495" value="1"/>
  <variable name="y_16_5" index="2496" value="1"/>
  <variable name="y_17_0" index="2507" value="1"/>
  <variable name="y_18_1" index="2512" value="1"/>
  <variable name="u_1_0" index="2514" value="1"/>
  <variable name="u_2_0" index="2515" value="1"/>
  <variable name="u_1_1" index="2516" value="1"/>
  <variable name="u_2_1" index="2517" value="1"/>
  <variable name="u_1_2" index="2518" value="17"/>
  <variable name="u_2_2" index="2519" value="1"/>
  <variable name="u_1_3" index="2520" value="1"/>
  <variable name="u_2_3" index="2521" value="1"/>
  <variable name="u_1_4" index="2522" value="1"/>
  <variable name="u_2_4" index="2523" value="1"/>
  <variable name="u_1_5" index="2524" value="1"/>
  <variable name="u_2_5" index="2525" value="3"/>
  <variable name="u_3_0" index="2526" value="18"/>
  <variable name="u_3_1" index="2527" value="18"/>
  <variable name="u_3_2" index="2528" value="1"/>
  <variable name="u_3_3" index="2529" value="1"/>
  <variable name="u_3_4" index="2530" value="1"/>
  <variable name="u_3_5" index="2531" value="6"/>
  <variable name="u_4_0" index="2532" value="1"/>
  <variable name="u_4_1" index="2533" value="16"/>
  <variable name="u_4_2" index="2534" value="1"/>
  <variable name="u_4_3" index="2535" value="1"/>
  <variable name="u_4_4" index="2536" value="1"/>
  <variable name="u_4_5" index="2537" value="1"/>
  <variable name="u_5_0" index="2538" value="1"/>
  <variable name="u_5_1" index="2539" value="2"/>
  <variable name="u_5_2" index="2540" value="1"/>
  <variable name="u_5_3" index="2541" value="1"/>
  <variable name="u_5_4" index="2542" value="1"/>
  <variable name="u_5_5" index="2543" value="19"/>
  <variable name="u_6_0" index="2544" value="1"/>
  <variable name="u_6_1" index="2545" value="1"/>
  <variable name="u_6_2" index="2546" value="1"/>
  <variable name="u_6_3" index="2547" value="1"/>
  <variable name="u_6_4" index="2548" value="1"/>
  <variable name="u_6_5" index="2549" value="3"/>
  <variable name="u_7_0" index="2550" value="1"/>
  <variable name="u_7_1" index="2551" value="4"/>
  <variable name="u_7_2" index="2552" value="1"/>
  <variable name="u_7_3" index="2553" value="1"/>
  <variable name="u_7_4" index="2554" value="1"/>
  <variable name="u_7_5" index="2555" value="4"/>
  <variable name="u_8_0" index="2556" value="1"/>
  <variable name="u_8_1" index="2557" value="15"/>
  <variable name="u_8_2" index="2558" value="1"/>
  <variable name="u_8_3" index="2559" value="1"/>
  <variable name="u_8_4" index="2560" value="1"/>
  <variable name="u_8_5" index="2561" value="1"/>
  <variable name="u_9_0" index="2562" value="1"/>
  <variable name="u_9_1" index="2563" value="1"/>
  <variable name="u_9_2" index="2564" value="1"/>
  <variable name="u_9_3" index="2565" value="1"/>
  <variable name="u_9_4" index="2566" value="1"/>
  <variable name="u_9_5" index="2567" value="1"/>
  <variable name="u_10_0" index="2568" value="19"/>
  <variable name="u_10_1" index="2569" value="19"/>
  <variable name="u_10_2" index="2570" value="1"/>
  <variable name="u_10_3" index="2571" value="1"/>
  <variable name="u_10_4" index="2572" value="1"/>
  <variable name="u_10_5" index="2573" value="19"/>
  <variable name="u_11_0" index="2574" value="1"/>
  <variable name="u_11_1" index="2575" value="3"/>
  <variable name="u_11_2" index="2576" value="1"/>
  <variable name="u_11_3" index="2577" value="1"/>
  <variable name="u_11_4" index="2578" value="1"/>
  <variable name="u_11_5" index="2579" value="1"/>
  <variable name="u_12_0" index="2580" value="1"/>
  <variable name="u_12_1" index="2581" value="1"/>
  <variable name="u_12_2" index="2582" value="1"/>
  <variable name="u_12_3" index="2583" value="1"/>
  <variable name="u_12_4" index="2584" value="1"/>
  <variable name="u_12_5" index="2585" value="1"/>
  <variable name="u_13_0" index="2586" value="1"/>
  <variable name="u_13_1" index="2587" value="1"/>
  <variable name="u_13_2" index="2588" value="1"/>
  <variable name="u_13_3" index="2589" value="1"/>
  <variable name="u_13_4" index="2590" value="1"/>
  <variable name="u_13_5" index="2591" value="1"/>
  <variable name="u_14_0" index="2592" value="1"/>
  <variable name="u_14_1" index="2593" value="1"/>
  <variable name="u_14_2" index="2594" value="2"/>
  <variable name="u_14_3" index="2595" value="1"/>
  <variable name="u_14_4" index="2596" value="1"/>
  <variable name="u_14_5" index="2597" value="1"/>
  <variable name="u_15_0" index="2598" value="1"/>
  <variable name="u_15_1" index="2599" value="1"/>
  <variable name="u_15_2" index="2600" value="19"/>
  <variable name="u_15_3" index="2601" value="1"/>
  <variable name="u_15_4" index="2602" value="1"/>
  <variable name="u_15_5" index="2603" value="1"/>
  <variable name="u_16_0" index="2604" value="1"/>
  <variable name="u_16_1" index="2605" value="17"/>
  <variable name="u_16_2" index="2606" value="18"/>
  <variable name="u_16_3" index="2607" value="1"/>
  <variable name="u_16_4" index="2608" value="1"/>
  <variable name="u_16_5" index="2609" value="5"/>
  <variable name="u_17_0" index="2610" value="1"/>
  <variable name="u_17_1" index="2611" value="1"/>
  <variable name="u_17_2" index="2612" value="1"/>
  <variable name="u_17_3" index="2613" value="1"/>
  <variable name="u_17_4" index="2614" value="1"/>
  <variable name="u_17_5" index="2615" value="2"/>
  <variable name="u_18_0" index="2616" value="1"/>
  <variable name="u_18_1" index="2617" value="1"/>
  <variable name="u_18_2" index="2618" value="1"/>
  <variable name="u_18_3" index="2619" value="1"/>
  <variable name="u_18_4" index="2620" value="1"/>
  <variable name="u_18_5" index="2621" value="1"/>
  <variable name="u_19_0" index="2622" value="1"/>
  <variable name="u_19_1" index="2623" value="14"/>
  <variable name="u_19_2" index="2624" value="1"/>
  <variable name="u_19_3" index="2625" value="1"/>
  <variable name="u_19_4" index="2626" value="1"/>
  <variable name="u_19_5" index="2627" value="1"/>
 </variables>
 <objectiveValues>
  <objective index="0" name="" value="260"/>
 </objectiveValues>
</CPLEXSolution>
